c t pwmc
c file mc2024_track4_039.cnf
p cnf 100 262
c p weight 40 0.20000000 0
c p weight -40 0.80000000 0
c p weight 48 0.20000000 0
c p weight -48 0.80000000 0
c p weight 1 0.20000000 0
c p weight -1 0.80000000 0
c p weight 2 0.20000000 0
c p weight -2 0.80000000 0
c p weight 3 0.20000000 0
c p weight -3 0.80000000 0
c p weight 4 0.20000000 0
c p weight -4 0.80000000 0
c p weight 5 0.20000000 0
c p weight -5 0.80000000 0
c p weight 6 0.20000000 0
c p weight -6 0.80000000 0
c p weight 7 0.20000000 0
c p weight -7 0.80000000 0
c p weight 8 0.20000000 0
c p weight -8 0.80000000 0
c p weight 9 0.20000000 0
c p weight -9 0.80000000 0
c p weight 10 0.20000000 0
c p weight -10 0.80000000 0
c p weight 11 0.20000000 0
c p weight -11 0.80000000 0
c p weight 12 0.20000000 0
c p weight -12 0.80000000 0
c p weight 13 0.20000000 0
c p weight -13 0.80000000 0
c p weight 14 0.20000000 0
c p weight -14 0.80000000 0
c p weight 15 0.20000000 0
c p weight -15 0.80000000 0
c p weight 16 0.20000000 0
c p weight -16 0.80000000 0
c p weight 17 0.20000000 0
c p weight -17 0.80000000 0
c p weight 18 0.20000000 0
c p weight -18 0.80000000 0
c p weight 19 0.20000000 0
c p weight -19 0.80000000 0
c p weight 20 0.20000000 0
c p weight -20 0.80000000 0
c p weight 21 0.20000000 0
c p weight -21 0.80000000 0
c p weight 22 0.20000000 0
c p weight -22 0.80000000 0
c p weight 23 0.20000000 0
c p weight -23 0.80000000 0
c p weight 24 0.20000000 0
c p weight -24 0.80000000 0
c p weight 25 0.20000000 0
c p weight -25 0.80000000 0
c p weight 26 0.20000000 0
c p weight -26 0.80000000 0
c p weight 27 0.20000000 0
c p weight -27 0.80000000 0
c p weight 28 0.20000000 0
c p weight -28 0.80000000 0
c p weight 29 0.20000000 0
c p weight -29 0.80000000 0
c p weight 30 0.20000000 0
c p weight -30 0.80000000 0
c p weight 31 0.20000000 0
c p weight -31 0.80000000 0
c p weight 32 0.20000000 0
c p weight -32 0.80000000 0
c p weight 33 0.20000000 0
c p weight -33 0.80000000 0
c p weight 34 0.20000000 0
c p weight -34 0.80000000 0
c p weight 35 0.20000000 0
c p weight -35 0.80000000 0
c p weight 36 0.20000000 0
c p weight -36 0.80000000 0
c p weight 37 0.20000000 0
c p weight -37 0.80000000 0
c p weight 38 0.20000000 0
c p weight -38 0.80000000 0
c p weight 39 0.20000000 0
c p weight -39 0.80000000 0
c p weight 41 0.20000000 0
c p weight -41 0.80000000 0
c p weight 42 0.20000000 0
c p weight -42 0.80000000 0
c p weight 43 0.20000000 0
c p weight -43 0.80000000 0
c p weight 44 0.20000000 0
c p weight -44 0.80000000 0
c p weight 45 0.20000000 0
c p weight -45 0.80000000 0
c p weight 46 0.20000000 0
c p weight -46 0.80000000 0
c p weight 47 0.20000000 0
c p weight -47 0.80000000 0
c p weight 49 0.20000000 0
c p weight -49 0.80000000 0
c p weight 50 0.20000000 0
c p weight -50 0.80000000 0
c p weight 51 1 0
c p weight -51 1 0
c p weight 52 1 0
c p weight -52 1 0
c p weight 53 1 0
c p weight -53 1 0
c p weight 54 1 0
c p weight -54 1 0
c p weight 55 1 0
c p weight -55 1 0
c p weight 56 1 0
c p weight -56 1 0
c p weight 57 1 0
c p weight -57 1 0
c p weight 58 1 0
c p weight -58 1 0
c p weight 59 1 0
c p weight -59 1 0
c p weight 60 1 0
c p weight -60 1 0
c p weight 61 1 0
c p weight -61 1 0
c p weight 62 1 0
c p weight -62 1 0
c p weight 63 1 0
c p weight -63 1 0
c p weight 64 1 0
c p weight -64 1 0
c p weight 65 1 0
c p weight -65 1 0
c p weight 66 1 0
c p weight -66 1 0
c p weight 67 1 0
c p weight -67 1 0
c p weight 68 1 0
c p weight -68 1 0
c p weight 69 1 0
c p weight -69 1 0
c p weight 70 1 0
c p weight -70 1 0
c p weight 71 1 0
c p weight -71 1 0
c p weight 72 1 0
c p weight -72 1 0
c p weight 73 1 0
c p weight -73 1 0
c p weight 74 1 0
c p weight -74 1 0
c p weight 75 1 0
c p weight -75 1 0
c p weight 76 1 0
c p weight -76 1 0
c p weight 77 1 0
c p weight -77 1 0
c p weight 78 1 0
c p weight -78 1 0
c p weight 79 1 0
c p weight -79 1 0
c p weight 80 1 0
c p weight -80 1 0
c p weight 81 1 0
c p weight -81 1 0
c p weight 82 1 0
c p weight -82 1 0
c p weight 83 1 0
c p weight -83 1 0
c p weight 84 1 0
c p weight -84 1 0
c p weight 85 1 0
c p weight -85 1 0
c p weight 86 1 0
c p weight -86 1 0
c p weight 87 1 0
c p weight -87 1 0
c p weight 88 1 0
c p weight -88 1 0
c p weight 89 1 0
c p weight -89 1 0
c p weight 90 1 0
c p weight -90 1 0
c p weight 91 1 0
c p weight -91 1 0
c p weight 92 1 0
c p weight -92 1 0
c p weight 93 1 0
c p weight -93 1 0
c p weight 94 1 0
c p weight -94 1 0
c p weight 95 1 0
c p weight -95 1 0
c p weight 96 1 0
c p weight -96 1 0
c p weight 97 1 0
c p weight -97 1 0
c p weight 98 1 0
c p weight -98 1 0
c p weight 99 1 0
c p weight -99 1 0
c p weight 100 1 0
c p weight -100 1 0
-23 51 0
-49 51 0
-1 51 0
-36 51 0
-51 23 49 1 36 0
-34 52 0
-35 52 0
-30 52 0
-12 52 0
-52 34 35 30 12 0
-12 53 0
-42 53 0
-20 53 0
-41 53 0
-53 12 42 20 41 0
-35 54 0
-27 54 0
-13 54 0
-21 54 0
-54 35 27 13 21 0
-47 55 0
-29 55 0
-8 55 0
-41 55 0
-55 47 29 8 41 0
-40 56 0
-44 56 0
-36 56 0
-33 56 0
-56 40 44 36 33 0
-5 57 0
-22 57 0
-49 57 0
-14 57 0
-57 5 22 49 14 0
-26 58 0
-40 58 0
-36 58 0
-27 58 0
-58 26 40 36 27 0
-40 59 0
-24 59 0
-10 59 0
-26 59 0
-59 40 24 10 26 0
-3 60 0
-23 60 0
-38 60 0
-46 60 0
-60 3 23 38 46 0
-42 61 0
-28 61 0
-31 61 0
-20 61 0
-61 42 28 31 20 0
-43 62 0
-1 62 0
-16 62 0
-21 62 0
-62 43 1 16 21 0
-10 63 0
-9 63 0
-13 63 0
-3 63 0
-63 10 9 13 3 0
-46 64 0
-45 64 0
-10 64 0
-17 64 0
-64 46 45 10 17 0
-43 65 0
-31 65 0
-30 65 0
-21 65 0
-65 43 31 30 21 0
-22 66 0
-18 66 0
-47 66 0
-13 66 0
-66 22 18 47 13 0
-41 67 0
-8 67 0
-39 67 0
-43 67 0
-67 41 8 39 43 0
-30 68 0
-28 68 0
-40 68 0
-23 68 0
-68 30 28 40 23 0
-7 69 0
-20 69 0
-42 69 0
-49 69 0
-69 7 20 42 49 0
-23 70 0
-9 70 0
-22 70 0
-32 70 0
-70 23 9 22 32 0
-17 71 0
-34 71 0
-37 71 0
-13 71 0
-71 17 34 37 13 0
-28 72 0
-46 72 0
-31 72 0
-22 72 0
-72 28 46 31 22 0
-28 73 0
-11 73 0
-44 73 0
-49 73 0
-73 28 11 44 49 0
-30 74 0
-40 74 0
-11 74 0
-20 74 0
-74 30 40 11 20 0
-47 75 0
-1 75 0
-14 75 0
-28 75 0
-75 47 1 14 28 0
-28 76 0
-3 76 0
-50 76 0
-35 76 0
-76 28 3 50 35 0
-25 77 0
-41 77 0
-35 77 0
-49 77 0
-77 25 41 35 49 0
-50 78 0
-6 78 0
-30 78 0
-18 78 0
-78 50 6 30 18 0
-39 79 0
-18 79 0
-32 79 0
-13 79 0
-79 39 18 32 13 0
-13 80 0
-42 80 0
-40 80 0
-25 80 0
-80 13 42 40 25 0
-35 81 0
-40 81 0
-4 81 0
-25 81 0
-81 35 40 4 25 0
-3 82 0
-25 82 0
-23 82 0
-38 82 0
-82 3 25 23 38 0
-3 83 0
-33 83 0
-42 83 0
-2 83 0
-83 3 33 42 2 0
-19 84 0
-18 84 0
-45 84 0
-3 84 0
-84 19 18 45 3 0
-16 85 0
-46 85 0
-9 85 0
-15 85 0
-85 16 46 9 15 0
-49 86 0
-13 86 0
-47 86 0
-19 86 0
-86 49 13 47 19 0
-28 87 0
-11 87 0
-10 87 0
-19 87 0
-87 28 11 10 19 0
-37 88 0
-44 88 0
-9 88 0
-42 88 0
-88 37 44 9 42 0
-20 89 0
-13 89 0
-16 89 0
-45 89 0
-89 20 13 16 45 0
-17 90 0
-5 90 0
-47 90 0
-49 90 0
-90 17 5 47 49 0
-48 91 0
-50 91 0
-19 91 0
-16 91 0
-91 48 50 19 16 0
-46 92 0
-22 92 0
-31 92 0
-41 92 0
-92 46 22 31 41 0
-32 93 0
-28 93 0
-6 93 0
-43 93 0
-93 32 28 6 43 0
-4 94 0
-50 94 0
-20 94 0
-14 94 0
-94 4 50 20 14 0
-11 95 0
-40 95 0
-2 95 0
-5 95 0
-95 11 40 2 5 0
-50 96 0
-43 96 0
-26 96 0
-12 96 0
-96 50 43 26 12 0
-8 97 0
-20 97 0
-29 97 0
-14 97 0
-97 8 20 29 14 0
-18 98 0
-29 98 0
-11 98 0
-48 98 0
-98 18 29 11 48 0
-26 99 0
-15 99 0
-21 99 0
-7 99 0
-99 26 15 21 7 0
-6 100 0
-4 100 0
-34 100 0
-13 100 0
-100 6 4 34 13 0
62 0
-63 0
65 0
53 0
55 0
64 0
84 0
-85 0
-60 0
-98 0
-73 0
-90 0
c p show 40 48 0
